p cnf 7230 18
-6169 -6171 -6271 -6283 6409 0
6169 -6410 0
-3188 -6253 6406 0
6171 -6410 0
-4194 -6251 6407 0
4194 -6408 0
6271 -6410 0
-6409 6410 0
-6407 6408 0
6251 -6408 0
6283 -6410 0
-6173 -6175 -6273 -6281 6412 0
6405 -6406 0
-6405 6406 0
6281 -6412 0
6273 -6412 0
6175 -6412 0
6173 -6412 0
